38
[[-1, 0, 45675, 0, 24482, 0, 28297, 0, 0, 37163, 0, 0, 0, 0, 34085, 0, 0, 45049, 0, 0, 0, 0, 0, 0, 0, 0, 0, 0, 0, 0, 0, 0, 37189, 46282, 26541, 0, 0, 9262],[0, -1, 0, 0, 37772, 0, 0, 0, 0, 0, 0, 0, 0, 0, 0, 0, 0, 0, 0, 0, 0, 0, 0, 0, 0, 0, 0, 0, 0, 0, 0, 31493, 16293, 21795, 0, 0, 44749, 0],[45675, 0, -1, 0, 30897, 0, 0, 0, 0, 33884, 0, 0, 0, 0, 0, 0, 26308, 0, 0, 38652, 0, 0, 0, 14017, 0, 39413, 0, 37192, 0, 0, 0, 0, 0, 26341, 0, 0, 0, 0],[0, 0, 0, -1, 0, 0, 0, 0, 0, 0, 0, 0, 0, 0, 0, 0, 0, 7927, 0, 0, 46037, 0, 25792, 0, 0, 20738, 0, 38993, 0, 0, 29708, 0, 0, 0, 0, 18753, 0, 0],[24482, 37772, 30897, 0, -1, 35214, 0, 0, 9173, 0, 0, 0, 0, 0, 0, 26571, 32965, 0, 0, 0, 0, 0, 0, 22875, 0, 0, 0, 0, 41183, 0, 0, 0, 0, 0, 0, 0, 0, 39947],[0, 0, 0, 0, 35214, -1, 0, 32171, 0, 0, 29698, 0, 0, 0, 0, 17726, 0, 0, 39804, 0, 0, 31078, 0, 0, 0, 0, 45833, 0, 0, 0, 0, 0, 0, 0, 0, 28023, 0, 0],[28297, 0, 0, 0, 0, 0, -1, 0, 0, 0, 0, 19272, 0, 0, 0, 29016, 0, 0, 0, 0, 0, 0, 0, 0, 30806, 44752, 0, 30721, 36811, 0, 0, 0, 0, 0, 0, 0, 0, 0],[0, 0, 0, 0, 0, 32171, 0, -1, 0, 0, 21049, 0, 0, 19260, 0, 0, 44632, 0, 0, 0, 45812, 0, 0, 43401, 0, 0, 0, 0, 0, 45686, 0, 0, 0, 0, 0, 0, 0, 21723],[0, 0, 0, 0, 9173, 0, 0, 0, -1, 36977, 0, 0, 0, 32546, 0, 0, 40118, 0, 17990, 36806, 0, 41891, 0, 0, 40286, 0, 0, 0, 45455, 23529, 0, 0, 12796, 0, 0, 40776, 0, 0],[37163, 0, 33884, 0, 0, 0, 0, 0, 36977, -1, 45207, 0, 13678, 0, 0, 0, 0, 0, 0, 35864, 0, 0, 27887, 0, 0, 0, 0, 0, 0, 17980, 0, 0, 0, 0, 0, 22812, 17788, 0],[0, 0, 0, 0, 0, 29698, 0, 21049, 0, 45207, -1, 0, 41358, 41849, 0, 0, 0, 0, 0, 0, 0, 0, 0, 0, 0, 43592, 0, 0, 8387, 0, 31147, 0, 36025, 45634, 0, 0, 27149, 0],[0, 0, 0, 0, 0, 0, 19272, 0, 0, 0, 0, -1, 0, 36140, 0, 0, 0, 0, 0, 3897, 35510, 0, 0, 0, 17812, 0, 44393, 0, 41443, 0, 0, 0, 0, 0, 0, 41737, 0, 0],[0, 0, 0, 0, 0, 0, 0, 0, 0, 13678, 41358, 0, -1, 0, 0, 0, 31927, 45637, 39022, 35782, 0, 0, 0, 0, 0, 31254, 26287, 0, 0, 0, 31869, 0, 0, 0, 0, 0, 24304, 0],[0, 0, 0, 0, 0, 0, 0, 19260, 32546, 0, 41849, 36140, 0, -1, 0, 0, 0, 0, 41843, 0, 0, 0, 0, 0, 0, 0, 39373, 0, 45394, 0, 0, 0, 0, 0, 0, 0, 0, 27881],[34085, 0, 0, 0, 0, 0, 0, 0, 0, 0, 0, 0, 0, 0, -1, 0, 0, 0, 0, 0, 0, 0, 5712, 45666, 0, 0, 0, 0, 0, 0, 0, 0, 0, 0, 0, 26876, 0, 0],[0, 0, 0, 0, 26571, 17726, 29016, 0, 0, 0, 0, 0, 0, 0, 0, -1, 40860, 0, 0, 44761, 0, 0, 0, 0, 39954, 42596, 0, 0, 43388, 0, 0, 35021, 0, 0, 43450, 0, 0, 0],[0, 0, 26308, 0, 32965, 0, 0, 44632, 40118, 0, 0, 0, 31927, 0, 0, 40860, -1, 0, 0, 0, 0, 15450, 19394, 0, 0, 0, 0, 34178, 0, 0, 3029, 36856, 0, 0, 0, 0, 0, 0],[45049, 0, 0, 7927, 0, 0, 0, 0, 0, 0, 0, 0, 45637, 0, 0, 0, 0, -1, 29599, 0, 21537, 0, 0, 35377, 0, 0, 22510, 34841, 30862, 34763, 0, 0, 36341, 0, 3036, 0, 0, 20368],[0, 0, 0, 0, 0, 39804, 0, 0, 17990, 0, 0, 0, 39022, 41843, 0, 0, 0, 29599, -1, 0, 0, 0, 0, 0, 0, 28058, 0, 0, 28153, 0, 0, 0, 0, 29356, 0, 0, 0, 0],[0, 0, 38652, 0, 0, 0, 0, 0, 36806, 35864, 0, 3897, 35782, 0, 0, 44761, 0, 0, 0, -1, 0, 36742, 43755, 0, 0, 28042, 0, 0, 37793, 37843, 0, 0, 0, 0, 0, 24228, 0, 0],[0, 0, 0, 46037, 0, 0, 0, 45812, 0, 0, 0, 35510, 0, 0, 0, 0, 0, 21537, 0, 0, -1, 0, 25117, 0, 0, 45458, 0, 0, 0, 0, 0, 0, 0, 26202, 0, 0, 0, 0],[0, 0, 0, 0, 0, 31078, 0, 0, 41891, 0, 0, 0, 0, 0, 0, 0, 15450, 0, 0, 36742, 0, -1, 0, 40771, 11881, 0, 0, 17108, 0, 35507, 41723, 0, 0, 0, 0, 0, 0, 38587],[0, 0, 0, 25792, 0, 0, 0, 0, 0, 27887, 0, 0, 0, 0, 5712, 0, 19394, 0, 0, 43755, 25117, 0, -1, 0, 0, 23242, 0, 43510, 0, 0, 38601, 0, 0, 0, 0, 0, 0, 0],[0, 0, 14017, 0, 22875, 0, 0, 43401, 0, 0, 0, 0, 0, 0, 45666, 0, 0, 35377, 0, 0, 0, 40771, 0, -1, 32708, 0, 0, 30836, 19417, 0, 0, 0, 0, 38631, 45972, 0, 0, 29380],[0, 0, 0, 0, 0, 0, 30806, 0, 40286, 0, 0, 17812, 0, 0, 0, 39954, 0, 0, 0, 0, 0, 11881, 0, 32708, -1, 0, 45637, 27660, 0, 0, 0, 35475, 0, 0, 0, 0, 25858, 0],[0, 0, 39413, 20738, 0, 0, 44752, 0, 0, 0, 43592, 0, 31254, 0, 0, 42596, 0, 0, 28058, 28042, 45458, 0, 23242, 0, 0, -1, 0, 41274, 0, 23830, 0, 0, 0, 30506, 0, 0, 0, 0],[0, 0, 0, 0, 0, 45833, 0, 0, 0, 0, 0, 44393, 26287, 39373, 0, 0, 0, 22510, 0, 0, 0, 0, 0, 0, 45637, 0, -1, 0, 0, 0, 0, 23970, 0, 0, 0, 0, 0, 0],[0, 0, 37192, 38993, 0, 0, 30721, 0, 0, 0, 0, 0, 0, 0, 0, 0, 34178, 34841, 0, 0, 0, 17108, 43510, 30836, 27660, 41274, 0, -1, 0, 0, 0, 0, 0, 0, 0, 0, 0, 0],[0, 0, 0, 0, 41183, 0, 36811, 0, 45455, 0, 8387, 41443, 0, 45394, 0, 43388, 0, 30862, 28153, 37793, 0, 0, 0, 19417, 0, 0, 0, 0, -1, 0, 0, 17610, 0, 0, 0, 0, 0, 0],[0, 0, 0, 0, 0, 0, 0, 45686, 23529, 17980, 0, 0, 0, 0, 0, 0, 0, 34763, 0, 37843, 0, 35507, 0, 0, 0, 23830, 0, 0, 0, -1, 0, 45864, 0, 46082, 39816, 0, 0, 0],[0, 0, 0, 29708, 0, 0, 0, 0, 0, 0, 31147, 0, 31869, 0, 0, 0, 3029, 0, 0, 0, 0, 41723, 38601, 0, 0, 0, 0, 0, 0, 0, -1, 0, 0, 0, 0, 16898, 35806, 0],[0, 31493, 0, 0, 0, 0, 0, 0, 0, 0, 0, 0, 0, 0, 0, 35021, 36856, 0, 0, 0, 0, 0, 0, 0, 35475, 0, 23970, 0, 17610, 45864, 0, -1, 0, 0, 0, 0, 0, 0],[37189, 16293, 0, 0, 0, 0, 0, 0, 12796, 0, 36025, 0, 0, 0, 0, 0, 0, 36341, 0, 0, 0, 0, 0, 0, 0, 0, 0, 0, 0, 0, 0, 0, -1, 38390, 0, 0, 0, 0],[46282, 21795, 26341, 0, 0, 0, 0, 0, 0, 0, 45634, 0, 0, 0, 0, 0, 0, 0, 29356, 0, 26202, 0, 0, 38631, 0, 30506, 0, 0, 0, 46082, 0, 0, 38390, -1, 42330, 0, 0, 0],[26541, 0, 0, 0, 0, 0, 0, 0, 0, 0, 0, 0, 0, 0, 0, 43450, 0, 3036, 0, 0, 0, 0, 0, 45972, 0, 0, 0, 0, 0, 39816, 0, 0, 0, 42330, -1, 13463, 0, 0],[0, 0, 0, 18753, 0, 28023, 0, 0, 40776, 22812, 0, 41737, 0, 0, 26876, 0, 0, 0, 0, 24228, 0, 0, 0, 0, 0, 0, 0, 0, 0, 0, 16898, 0, 0, 0, 13463, -1, 26299, 0],[0, 44749, 0, 0, 0, 0, 0, 0, 0, 17788, 27149, 0, 24304, 0, 0, 0, 0, 0, 0, 0, 0, 0, 0, 0, 25858, 0, 0, 0, 0, 0, 35806, 0, 0, 0, 0, 26299, -1, 10482],[9262, 0, 0, 0, 39947, 0, 0, 21723, 0, 0, 0, 0, 0, 27881, 0, 0, 0, 20368, 0, 0, 0, 38587, 0, 29380, 0, 0, 0, 0, 0, 0, 0, 0, 0, 0, 0, 0, 10482, -1]]